
n_res = 4;
rcap = [32, 33, 266, 309];
rtype = [1, 1, 2, 2];
n_tasks = 50;
modes =  [{1, 2, 3}, {4, 5, 6}, {7, 8, 9}, {10, 11, 12}, {13, 14, 15}, {16, 17, 18}, {19, 20, 21}, {22, 23, 24}, {25, 26, 27}, {28, 29, 30}, {31, 32, 33}, {34, 35, 36}, {37, 38, 39}, {40, 41, 42}, {43, 44, 45}, {46, 47, 48}, {49, 50, 51}, {52, 53, 54}, {55, 56, 57}, {58, 59, 60}, {61, 62, 63}, {64, 65, 66}, {67, 68, 69}, {70, 71, 72}, {73, 74, 75}, {76, 77, 78}, {79, 80, 81}, {82, 83, 84}, {85, 86, 87}, {88, 89, 90}, {91, 92, 93}, {94, 95, 96}, {97, 98, 99}, {100, 101, 102}, {103, 104, 105}, {106, 107, 108}, {109, 110, 111}, {112, 113, 114}, {115, 116, 117}, {118, 119, 120}, {121, 122, 123}, {124, 125, 126}, {127, 128, 129}, {130, 131, 132}, {133, 134, 135}, {136, 137, 138}, {139, 140, 141}, {142, 143, 144}, {145, 146, 147}, {148, 149, 150}];
succ =  [{26, 24, 23, 22, 21, 20, 19, 18, 17}, {24, 21, 19, 18, 17, 16}, {26, 22, 20, 19, 18, 17}, {38, 22, 19, 18, 16}, {37, 28, 26, 24, 20, 19, 17}, {38, 29, 28, 24, 18, 16}, {49, 37, 30, 28, 26, 23, 20, 17}, {37, 26, 24, 22, 20, 19}, {28, 23, 19, 18, 17}, {38, 29, 28, 18, 16}, {50, 38, 37, 32, 27, 26, 24, 22}, {49, 37, 36, 30, 29, 26, 17}, {30, 29, 26, 18, 17}, {48, 38, 36, 30, 29, 27, 18}, {48, 38, 37, 36, 35, 26, 19}, {49, 37, 30, 26, 20}, {50, 48, 46, 43, 38, 32, 31, 27}, {50, 49, 47, 45, 43, 42, 37, 35, 32, 31}, {50, 49, 47, 45, 44, 43, 30, 29}, {50, 48, 44, 43, 36, 32, 27}, {49, 48, 46, 45, 44, 43, 42, 36, 35, 34, 33}, {46, 45, 44, 43, 34, 33, 28}, {48, 47, 46, 36, 35, 31, 29}, {49, 44, 43, 36, 34, 30}, {43, 37, 36, 34, 30}, {47, 45, 43, 42, 31}, {47, 45, 42, 41, 35}, {48, 42, 41, 40, 35}, {42, 40, 34, 33}, {46, 42, 40, 33}, {40, 39, 34}, {41, 33}, {39}, {41}, {39}, {40}, {44}, {40}, {}, {}, {}, {}, {}, {}, {}, {}, {}, {}, {}, {}];
n_opt = 150;
dur = [4, 5, 9, 5, 9, 10, 3, 7, 8, 1, 6, 7, 8, 9, 10, 3, 4, 8, 4, 8, 9, 4, 5, 8, 1, 6, 7, 4, 6, 7, 5, 8, 9, 2, 6, 7, 2, 3, 8, 5, 9, 10, 1, 5, 9, 2, 7, 9, 2, 4, 6, 5, 6, 9, 3, 6, 10, 1, 3, 8, 2, 3, 9, 1, 2, 4, 1, 6, 7, 3, 6, 7, 8, 9, 10, 3, 6, 10, 4, 7, 8, 4, 5, 6, 5, 6, 9, 3, 4, 6, 3, 8, 9, 1, 2, 3, 2, 3, 7, 3, 8, 9, 3, 5, 6, 1, 3, 6, 6, 7, 9, 4, 5, 6, 5, 7, 8, 2, 3, 9, 5, 6, 10, 2, 8, 9, 3, 4, 9, 6, 7, 10, 3, 6, 8, 2, 5, 6, 4, 5, 10, 2, 3, 10, 2, 5, 9, 2, 5, 7];
rreq = [|7, 5, 5, 5, 4, 3, 8, 8, 8, 6, 4, 2, 8, 5, 3, 7, 4, 4, 4, 4, 3, 4, 4, 4, 7, 6, 6, 8, 7, 7, 7, 5, 4, 2, 2, 2, 4, 3, 3, 8, 6, 2, 9, 5, 3, 7, 6, 6, 8, 8, 8, 6, 6, 4, 8, 7, 7, 10, 10, 10, 3, 3, 3, 2, 1, 1, 5, 5, 5, 9, 7, 3, 5, 4, 4, 7, 5, 1, 3, 1, 1, 8, 5, 2, 6, 5, 4, 10, 6, 5, 2, 2, 2, 9, 3, 2, 6, 4, 3, 10, 6, 3, 7, 5, 4, 4, 3, 2, 6, 5, 5, 8, 8, 6, 2, 2, 2, 9, 8, 6, 4, 3, 2, 4, 3, 3, 6, 5, 4, 8, 7, 7, 2, 2, 2, 3, 2, 2, 2, 2, 2, 3, 2, 2, 9, 8, 8, 6, 4, 2
 |7, 7, 5, 6, 5, 5, 7, 5, 3, 7, 7, 7, 5, 3, 2, 5, 5, 5, 3, 2, 2, 7, 6, 6, 6, 6, 6, 2, 2, 2, 7, 7, 4, 10, 5, 2, 10, 7, 6, 9, 7, 7, 9, 4, 4, 6, 4, 4, 5, 4, 3, 1, 1, 1, 5, 3, 3, 7, 5, 3, 7, 5, 5, 3, 1, 1, 8, 7, 6, 9, 6, 2, 3, 3, 2, 5, 4, 3, 10, 8, 8, 8, 8, 7, 5, 4, 4, 4, 2, 2, 9, 9, 7, 9, 8, 8, 7, 6, 4, 4, 4, 3, 8, 4, 1, 9, 7, 4, 2, 1, 1, 2, 2, 2, 4, 4, 4, 4, 3, 2, 8, 6, 6, 8, 7, 6, 5, 4, 3, 3, 2, 1, 2, 2, 1, 9, 7, 7, 6, 6, 5, 9, 6, 6, 9, 9, 8, 10, 9, 9
 |2, 2, 2, 9, 8, 7, 5, 5, 5, 6, 5, 4, 4, 3, 2, 5, 4, 3, 10, 9, 9, 8, 4, 3, 5, 5, 5, 4, 3, 3, 8, 6, 4, 8, 6, 4, 6, 4, 3, 8, 7, 6, 4, 2, 2, 4, 4, 4, 3, 2, 2, 5, 4, 2, 8, 5, 3, 9, 9, 9, 4, 3, 2, 1, 1, 1, 5, 3, 2, 4, 3, 1, 9, 7, 4, 6, 5, 4, 3, 2, 1, 5, 3, 3, 5, 4, 3, 6, 3, 2, 4, 3, 3, 3, 2, 2, 7, 6, 6, 8, 8, 7, 5, 3, 2, 7, 6, 5, 1, 1, 1, 10, 7, 3, 7, 7, 4, 6, 5, 5, 5, 5, 5, 6, 6, 3, 8, 7, 7, 5, 5, 4, 9, 8, 8, 6, 6, 6, 8, 8, 8, 8, 8, 8, 3, 2, 2, 5, 3, 2
 |6, 5, 4, 5, 3, 3, 8, 7, 7, 2, 2, 2, 6, 4, 1, 9, 7, 7, 6, 5, 4, 6, 3, 1, 8, 7, 6, 5, 4, 2, 6, 5, 4, 9, 7, 7, 6, 6, 5, 5, 4, 4, 4, 3, 3, 7, 5, 4, 4, 4, 4, 10, 9, 9, 4, 3, 1, 6, 5, 4, 9, 8, 7, 9, 8, 7, 9, 8, 4, 8, 8, 7, 7, 7, 5, 6, 5, 5, 5, 4, 3, 6, 5, 4, 7, 3, 2, 8, 7, 6, 5, 4, 3, 7, 6, 5, 9, 6, 4, 6, 5, 2, 10, 10, 10, 8, 7, 7, 7, 5, 4, 5, 4, 3, 10, 9, 10, 10, 6, 6, 8, 6, 5, 6, 4, 2, 5, 3, 3, 8, 8, 8, 6, 4, 2, 2, 2, 1, 10, 9, 9, 4, 4, 3, 6, 6, 3, 8, 6, 4|];